!PBE D4 def2-TZVPP FREQ SMD(WATER)

%scf
MaxCore 28672
end

* xyz 0 1
C     -6.23418    0.72772    0.54495
C     -5.17539    1.72491    0.05145
O     -3.03153    1.82550   -1.19218
F     -4.65358    2.39749    1.14292
O     -4.00684   -0.13881   -0.87274
C     -4.03647    1.07032   -0.70022
H     -3.01631    2.78609   -1.07732
F     -5.78444    2.64416   -0.78522
F     -7.23216    1.40913    1.21827
F     -6.79915    0.05746   -0.52635
F     -5.66314   -0.19085    1.40883
*