!PBE D4 def2-TZVPP OPT FREQ SMD(WATER)

%scf
MaxCore 28672
end

* xyz 1 1
C     -6.40842    0.62569    0.25356
C     -5.12847    1.49219    0.25857
O     -2.94724    1.72463   -0.62857
H     -5.34540    2.47542   -0.16640
F     -7.43113    1.31905    0.78544
C     -3.92403    0.87363   -0.43465
H     -3.23961    2.60473   -0.33661
F     -6.25733   -0.48937    0.99050
O     -3.77189   -0.31679   -0.61843
F     -6.76788    0.27283   -0.99418
*