!PBE D4 def2-TZVPP OPT FREQ SMD(WATER)

%scf
MaxCore 28672
end

* xyz 1 1
C     -6.42651    0.63337    0.27928
C     -5.20918    1.55527    0.06664
O     -3.00034    1.56017   -0.78736
H     -5.45458    2.31017   -0.68479
O     -3.81698   -0.40267   -0.19837
C     -3.97217    0.79017   -0.36684
H     -3.31785    2.47920   -0.79844
H     -4.98580    2.08592    0.99583
F     -7.39015    1.30332    0.93694
F     -6.94847    0.27239   -0.90724
*