!PBE D4 def2-TZVPP OPT FREQ SMD(WATER)

%scf
MaxCore 28672
end

* xyz 1 1
C     -6.38842    0.63306    0.20118
C     -5.17062    1.55299    0.07546
O     -2.79873    1.58341   -0.63306
F     -4.90086    2.13597    1.30137
F     -7.47199    1.37004    0.64127
C     -3.92542    0.86778   -0.43596
H     -2.76550    2.53364   -0.45408
F     -6.13502   -0.37993    1.10940
O     -3.91893   -0.32936   -0.67856
F     -6.69665    0.08222   -1.02969
*
