!PBE D4 def2-TZVPP OPT FREQ SMD(WATER)

%scf
MaxCore 28672
end

* xyz 1 1
C     -6.28313    0.68037    0.39161
C     -5.13141    1.63411    0.02177
O     -2.94661    1.67241   -0.88277
H     -5.46615    2.31046   -0.76882
O     -3.75619   -0.31734   -0.37242
C     -3.89689    0.88644   -0.44602
H     -3.26449    2.59043   -0.83364
H     -4.87183    2.24736    0.88831
F     -7.32245    1.38786    0.87186
H     -5.96356   -0.01741    1.17074
*