!PBE D4 def2-TZVPP OPT FREQ SMD(WATER)

%scf
MaxCore 28672
end

* xyz 1 1
C     -6.29068    0.56916    0.34028
C     -5.09327    1.51874    0.13589
O     -2.94695    1.66746   -0.83452
H     -5.41155    2.36050   -0.48399
H     -6.68042    0.22894   -0.62176
C     -3.90198    0.83562   -0.51242
H     -3.24087    2.56502   -0.60424
H     -4.78858    1.92652    1.10262
O     -3.79237   -0.36392   -0.65828
H     -5.99698   -0.30496    0.92744
*